c is-sat
p cnf 12 80
-1 -12 -4 0
4 -6 -8 0
-1 -10 8 0
-11 -10 -7 0
-10 5 -6 0
-3 -5 -2 0
-4 -11 10 0
-5 10 12 0
-12 -5 -7 0
-10 -8 4 0
-5 1 -10 0
-11 -12 2 0
-9 8 -7 0
-4 9 -1 0
-2 -3 6 0
-4 -1 -7 0
-6 5 -4 0
-1 -10 -6 0
6 -10 7 0
3 -1 -6 0
1 -10 -12 0
1 -3 -10 0
-8 -5 7 0
-12 -11 5 0
-4 10 11 0
-8 -9 -10 0
-3 5 -7 0
-9 6 -1 0
-4 -9 -8 0
-8 -10 -4 0
6 10 -11 0
-5 -9 -3 0
-4 -2 -11 0
8 -3 7 0
-9 -11 -5 0
-2 -9 -3 0
-5 4 8 0
-3 -4 -6 0
9 -3 -10 0
-4 -10 -3 0
-12 -7 -5 0
1 -4 -5 0
6 -4 -7 0
-3 -1 -7 0
10 4 -5 0
-12 -6 -3 0
-12 -7 -6 0
12 -6 -1 0
12 -8 4 0
-7 -9 -10 0
11 -9 -3 0
-6 10 3 0
-1 11 2 0
-10 -7 -6 0
1 -9 12 0
8 -12 -2 0
-6 -11 -7 0
-2 -7 -3 0
-8 -5 10 0
-11 -9 -3 0
11 -6 -8 0
-11 -2 -7 0
-6 -9 -8 0
-11 7 -6 0
-9 11 -12 0
2 -9 -4 0
-2 -9 11 0
-5 6 8 0
-4 -3 -11 0
7 5 -10 0
-11 -8 -6 0
-8 -3 -4 0
-11 -3 -9 0
8 -9 -12 0
-8 -6 3 0
5 -9 10 0
-5 12 -10 0
6 11 -12 0
-3 1 12 0
-2 -10 12 0
